NAME knap
OBJSENSE MAX
ROWS
 N  OBJ
 L  c0      
 L  c1      
 L  c2      
 L  c3      
 L  c4      
 L  c5      
 L  c6      
 L  c7      
 L  c8      
 L  c9      
 L  c10     
 L  c11     
 L  c12     
 L  c13     
 L  c14     
 L  c15     
COLUMNS
    MARKER    'MARKER'                 'INTORG'
    I0(2)     c0        2
    I0(2)     c1        3000
    I1(2)     c0        3
    I1(2)     c1        3500
    I2(2)     c0        4
    I2(2)     c1        5100
    I3(2)     c0        5
    I3(2)     c1        7200
    I4(11)    OBJ       16
    I4(11)    c2        2
    I4(11)    c3        3000
    I4(11)    c4        2
    I4(11)    c5        3000
    I4(11)    c6        2
    I4(11)    c7        3000
    I4(11)    c8        2
    I4(11)    c9        3000
    I4(11)    c10       2
    I4(11)    c11       3000
    I4(11)    c12       1
    I5(11)    OBJ       19
    I5(11)    c2        3
    I5(11)    c3        3500
    I5(11)    c4        3
    I5(11)    c5        3500
    I5(11)    c6        3
    I5(11)    c7        3500
    I5(11)    c8        3
    I5(11)    c9        3500
    I5(11)    c10       3
    I5(11)    c11       3500
    I5(11)    c13       1
    I6(11)    OBJ       23
    I6(11)    c2        4
    I6(11)    c3        5100
    I6(11)    c4        4
    I6(11)    c5        5100
    I6(11)    c6        4
    I6(11)    c7        5100
    I6(11)    c8        4
    I6(11)    c9        5100
    I6(11)    c10       4
    I6(11)    c11       5100
    I6(11)    c14       1
    I7(11)    OBJ       28
    I7(11)    c2        5
    I7(11)    c3        7200
    I7(11)    c4        5
    I7(11)    c5        7200
    I7(11)    c6        5
    I7(11)    c7        7200
    I7(11)    c8        5
    I7(11)    c9        7200
    I7(11)    c10       5
    I7(11)    c11       7200
    I7(11)    c15       1
    MARKER    'MARKER'                 'INTEND'
RHS
    RHS1      c0        7
    RHS1      c1        10000
    RHS1      c2        7
    RHS1      c3        10000
    RHS1      c4        7
    RHS1      c5        10000
    RHS1      c6        7
    RHS1      c7        10000
    RHS1      c8        7
    RHS1      c9        10000
    RHS1      c10       7
    RHS1      c11       10000
    RHS1      c12       1
    RHS1      c13       1
    RHS1      c14       1
    RHS1      c15       1
BOUNDS
 LI BND1      I0(2)     0
 LI BND1      I1(2)     0
 LI BND1      I2(2)     0
 LI BND1      I3(2)     0
 LI BND1      I4(11)    0
 LI BND1      I5(11)    0
 LI BND1      I6(11)    0
 LI BND1      I7(11)    0
ENDATA
